Cost: 1621
0-2-3-12-5-7-6-4-0
0-32-30-26-16-15-14-11-34-8-9-13-35-1-0
0-27-23-24-17-10-33-18-19-20-21-22-28-29-31-0
Cost: 1621
0-27-23-24-17-10-33-18-19-20-21-22-28-29-31-0
0-2-3-12-5-7-6-4-32-0
0-30-26-16-15-14-11-34-8-9-13-35-1-0
Cost: 1621
0-2-3-12-5-7-6-4-0
0-32-30-26-16-15-14-11-34-8-9-13-35-1-0
0-27-23-24-17-10-33-18-19-20-21-22-28-29-31-0
Cost: 1621
0-2-3-12-5-7-6-4-0
0-32-30-26-16-15-14-11-34-8-9-13-35-1-0
0-27-23-24-17-10-33-18-19-20-21-22-28-29-31-0
Cost: 1621
0-27-23-24-17-10-33-18-19-20-21-22-28-29-31-0
0-2-3-12-5-7-6-4-32-0
0-30-26-16-15-14-11-34-8-9-13-35-1-0
Cost: 1621
0-2-3-12-5-7-6-4-32-0
0-27-23-24-17-10-33-18-19-20-21-22-28-29-31-0
0-30-26-16-15-14-11-34-8-9-13-35-1-0
Cost: 1621
0-27-23-24-17-10-33-18-19-20-21-22-28-29-31-0
0-30-26-16-15-14-11-34-8-9-13-35-1-0
0-2-3-12-5-7-6-4-32-0
Cost: 1621
0-27-23-24-17-10-33-18-19-20-21-22-28-29-31-0
0-2-3-12-5-7-6-4-32-0
0-30-26-16-15-14-11-34-8-9-13-35-1-0
Cost: 1621
0-27-23-24-17-10-33-18-19-20-21-22-28-29-31-0
0-2-3-12-5-7-6-4-32-0
0-30-26-16-15-14-11-34-8-9-13-35-1-0
Cost: 1621
0-27-23-24-17-10-33-18-19-20-21-22-28-29-31-0
0-2-3-12-5-7-6-4-32-0
0-30-26-16-15-14-11-34-8-9-13-35-1-0
Cost: 1621
0-27-23-24-17-10-33-18-19-20-21-22-28-29-31-0
0-2-3-12-5-7-6-4-32-0
0-30-26-16-15-14-11-34-8-9-13-35-1-0
Cost: 1621
0-27-23-24-17-10-33-18-19-20-21-22-28-29-31-0
0-30-26-16-15-14-11-34-8-9-13-35-1-0
0-2-3-12-5-7-6-4-32-0
Cost: 1621
0-30-26-16-15-14-11-34-8-9-13-35-1-0
0-2-3-12-5-7-6-4-32-0
0-27-23-24-17-10-33-18-19-20-21-22-28-29-31-0
Cost: 1621
0-2-3-12-5-7-6-4-32-0
0-30-26-16-15-14-11-34-8-9-13-35-1-0
0-27-23-24-17-10-33-18-19-20-21-22-28-29-31-0
Cost: 1621
0-30-26-16-15-14-11-34-8-9-13-35-1-0
0-27-23-24-17-10-33-18-19-20-21-22-28-29-31-0
0-2-3-12-5-7-6-4-32-0
Cost: 1621
0-30-26-16-15-14-11-34-8-9-13-35-1-0
0-2-3-12-5-7-6-4-32-0
0-27-23-24-17-10-33-18-19-20-21-22-28-29-31-0
Cost: 1621
0-27-23-24-17-10-33-18-19-20-21-22-28-29-31-0
0-30-26-16-15-14-11-34-8-9-13-35-1-0
0-2-3-12-5-7-6-4-32-0
Cost: 1621
0-27-23-24-17-10-33-18-19-20-21-22-28-29-31-0
0-2-3-12-5-7-6-4-32-0
0-30-26-16-15-14-11-34-8-9-13-35-1-0
Cost: 1621
0-30-26-16-15-14-11-34-8-9-13-35-1-0
0-2-3-12-5-7-6-4-32-0
0-27-23-24-17-10-33-18-19-20-21-22-28-29-31-0
Cost: 1621
0-27-23-24-17-10-33-18-19-20-21-22-28-29-31-0
0-2-3-12-5-7-6-4-0
0-32-30-26-16-15-14-11-34-8-9-13-35-1-0
Cost: 1621
0-2-3-12-5-7-6-4-32-0
0-30-26-16-15-14-11-34-8-9-13-35-1-0
0-27-23-24-17-10-33-18-19-20-21-22-28-29-31-0
Cost: 1621
0-30-26-16-15-14-11-34-8-9-13-35-1-0
0-2-3-12-5-7-6-4-32-0
0-27-23-24-17-10-33-18-19-20-21-22-28-29-31-0
Cost: 1621
0-30-26-16-15-14-11-34-8-9-13-35-1-0
0-2-3-12-5-7-6-4-32-0
0-27-23-24-17-10-33-18-19-20-21-22-28-29-31-0
Cost: 1621
0-2-3-12-5-7-6-4-32-0
0-27-23-24-17-10-33-18-19-20-21-22-28-29-31-0
0-30-26-16-15-14-11-34-8-9-13-35-1-0
Cost: 1621
0-2-3-12-5-7-6-4-32-0
0-27-23-24-17-10-33-18-19-20-21-22-28-29-31-0
0-30-26-16-15-14-11-34-8-9-13-35-1-0
Cost: 1621
0-27-23-24-17-10-33-18-19-20-21-22-28-29-31-0
0-2-3-12-5-7-6-4-0
0-32-30-26-16-15-14-11-34-8-9-13-35-1-0
Cost: 1621
0-2-3-12-5-7-6-4-32-0
0-27-23-24-17-10-33-18-19-20-21-22-28-29-31-0
0-30-26-16-15-14-11-34-8-9-13-35-1-0
Cost: 1621
0-30-26-16-15-14-11-34-8-9-13-35-1-0
0-27-23-24-17-10-33-18-19-20-21-22-28-29-31-0
0-2-3-12-5-7-6-4-32-0
Cost: 1621
0-2-3-12-5-7-6-4-32-0
0-30-26-16-15-14-11-34-8-9-13-35-1-0
0-27-23-24-17-10-33-18-19-20-21-22-28-29-31-0
Cost: 1621
0-27-23-24-17-10-33-18-19-20-21-22-28-29-31-0
0-30-26-16-15-14-11-34-8-9-13-35-1-0
0-2-3-12-5-7-6-4-32-0
Cost: 1621
0-27-23-24-17-10-33-18-19-20-21-22-28-29-31-0
0-30-26-16-15-14-11-34-8-9-13-35-1-0
0-2-3-12-5-7-6-4-32-0
Cost: 1621
0-27-23-24-17-10-33-18-19-20-21-22-28-29-31-0
0-2-3-12-5-7-6-4-0
0-32-30-26-16-15-14-11-34-8-9-13-35-1-0
Cost: 1621
0-32-30-26-16-15-14-11-34-8-9-13-35-1-0
0-2-3-12-5-7-6-4-0
0-27-23-24-17-10-33-18-19-20-21-22-28-29-31-0
Cost: 1621
0-30-26-16-15-14-11-34-8-9-13-35-1-0
0-2-3-12-5-7-6-4-32-0
0-27-23-24-17-10-33-18-19-20-21-22-28-29-31-0
Cost: 1621
0-32-30-26-16-15-14-11-34-8-9-13-35-1-0
0-27-23-24-17-10-33-18-19-20-21-22-28-29-31-0
0-2-3-12-5-7-6-4-0
Cost: 1621
0-27-23-24-17-10-33-18-19-20-21-22-28-29-31-0
0-2-3-12-5-7-6-4-0
0-32-30-26-16-15-14-11-34-8-9-13-35-1-0
